653
1   1   0    0    0 0
1   2   0    66   0 13 41 40 19 0
1   3   0    75   0 18 47 4 0
1   4   0    29   0 42 44 0
2   1   0    64   0 25 14 6 0
2   2   0    76   0 17 37 15 45 33 5 0
2   3   0    34   0 12 46 0
2   4   0    70   0 28 31 26 8 27 0
3   1   0    75   0 9 34 30 39 10 0
3   2   0    0    0 0
3   3   0    80   0 24 43 7 23 48 1 0
3   4   0    64   0 32 11 38 49 0
4   1   0    75   0 20 35 36 3 22 0
4   2   0    69   0 29 2 16 50 21 0
4   3   0    0    0 0
4   4   0    0    0 0